(set-logic HORN)
(set-info :source |
    Benchmark: C_VC
    Output by Princess (http://www.philipp.ruemmer.org/princess.shtml)
|)
(set-info :status unsat)
(declare-fun inv_main515 (Int Int Int Int Int Int Int Int Int Int Int Int Int Int Int Int Int Int Int Int Int Int Int Int Int Int Int Int Int Int Int Int Int Int Int Int Int Int Int Int Int Int Int Int Int Int Int Int Int Int Int Int Int Int Int Int) Bool)
(declare-fun inv_main6 (Int Int Int Int) Bool)
(assert (forall ((var0 Int) (var1 Int) (var2 Int)) (inv_main6 var2 0 var1 var0)))
(assert (forall ((var0 Int) (var1 Int) (var2 Int) (var3 Int) (var4 Int) (var5 Int) (var6 Int) (var7 Int) (var8 Int) (var9 Int) (var10 Int) (var11 Int) (var12 Int) (var13 Int) (var14 Int) (var15 Int) (var16 Int) (var17 Int) (var18 Int) (var19 Int) (var20 Int) (var21 Int) (var22 Int) (var23 Int) (var24 Int) (var25 Int) (var26 Int) (var27 Int) (var28 Int) (var29 Int) (var30 Int) (var31 Int) (var32 Int) (var33 Int) (var34 Int) (var35 Int) (var36 Int) (var37 Int) (var38 Int) (var39 Int) (var40 Int) (var41 Int) (var42 Int) (var43 Int) (var44 Int) (var45 Int) (var46 Int) (var47 Int) (var48 Int) (var49 Int) (var50 Int) (var51 Int) (var52 Int) (var53 Int) (var54 Int) (var55 Int)) (or (not (and (inv_main6 var55 var54 var53 var52) (and (and (and (and (and (and (and (and (and (and (and (and (and (and (and (and (and (and (and (and (and (and (and (and (and (and (and (and (and (and (and (and (and (and (and (and (and (and (and (and (and (and (and (and (and (and (and (and (and (and (and (and (and (not (= (+ var51 (* (- 1) var50)) (+ var49 (* (- 1) var48)))) (and (= (+ var47 (* (- 1) var48)) var46) (and (= (+ var49 (* (- 1) var50)) var45) (and (= (+ var51 (* (- 1) var44)) var43) (and (= (+ var42 (* (- 1) var48)) var41) (and (= (+ var47 (* (- 1) var50)) var40) (and (= (+ var49 (* (- 1) var44)) var39) (and (= (+ var51 (* (- 1) var38)) var37) (and (= (+ var36 (* (- 1) var48)) var35) (and (= (+ var42 (* (- 1) var50)) var34) (and (= (+ var47 (* (- 1) var44)) var33) (and (= (+ var49 (* (- 1) var38)) var32) (and (= (+ var51 (* (- 1) var31)) var30) (and (= (+ var31 (* (- 1) var48)) var29) (and (= (+ var36 (* (- 1) var50)) var28) (and (= (+ var42 (* (- 1) var44)) var27) (and (= (+ var47 (* (- 1) var38)) var26) (and (= (+ var49 (* (- 1) var31)) var25) (and (= (+ var51 (* (- 1) var36)) var24) (and (= (+ var38 (* (- 1) var48)) var23) (and (= (+ var31 (* (- 1) var50)) var22) (and (= (+ var36 (* (- 1) var44)) var21) (and (= (+ var42 (* (- 1) var38)) var20) (and (= (+ var47 (* (- 1) var31)) var19) (and (= (+ var49 (* (- 1) var36)) var18) (and (= (+ var51 (* (- 1) var42)) var17) (and (= (+ var44 (* (- 1) var48)) var16) (and (= (+ var38 (* (- 1) var50)) var15) (and (= (+ var31 (* (- 1) var44)) var14) (and (= (+ var36 (* (- 1) var38)) var13) (and (= (+ var42 (* (- 1) var31)) var12) (and (= (+ var47 (* (- 1) var36)) var11) (and (= (+ var49 (* (- 1) var42)) var10) (and (= (+ var51 (* (- 1) var47)) var9) (and (= (+ var50 (* (- 1) var48)) var8) (and (= (+ var44 (* (- 1) var50)) var7) (and (= (+ var38 (* (- 1) var44)) var6) (and (= (+ var31 (* (- 1) var38)) var5) (and (= (+ var36 (* (- 1) var31)) var4) (and (= (+ var42 (* (- 1) var36)) var3) (and (= (+ var47 (* (- 1) var42)) var2) (and (= (+ var49 (* (- 1) var47)) var1) (and (= (+ var51 (* (- 1) var49)) var0) (and (not (= var45 var46)) (and (not (= var43 var46)) (and (not (= var43 var45)) (and (not (= var40 var41)) (and (not (= var39 var41)) (and (not (= var39 var40)) (and (not (= var37 var41)) (and (not (= var37 var40)) (and (not (= var37 var39)) (and (not (= var34 var35)) (and (not (= var33 var35)) (and (not (= var33 var34)) (and (not (= var32 var35)) (and (not (= var32 var34)) (and (not (= var32 var33)) (and (not (= var30 var35)) (and (not (= var30 var34)) (and (not (= var30 var33)) (and (not (= var30 var32)) (and (not (= var28 var29)) (and (not (= var27 var29)) (and (not (= var27 var28)) (and (not (= var26 var29)) (and (not (= var26 var28)) (and (not (= var26 var27)) (and (not (= var25 var29)) (and (not (= var25 var28)) (and (not (= var25 var27)) (and (not (= var25 var26)) (and (not (= var24 var29)) (and (not (= var24 var28)) (and (not (= var24 var27)) (and (not (= var24 var26)) (and (not (= var24 var25)) (and (not (= var22 var23)) (and (not (= var21 var23)) (and (not (= var21 var22)) (and (not (= var20 var23)) (and (not (= var20 var22)) (and (not (= var20 var21)) (and (not (= var19 var23)) (and (not (= var19 var22)) (and (not (= var19 var21)) (and (not (= var19 var20)) (and (not (= var18 var23)) (and (not (= var18 var22)) (and (not (= var18 var21)) (and (not (= var18 var20)) (and (not (= var18 var19)) (and (not (= var17 var23)) (and (not (= var17 var22)) (and (not (= var17 var21)) (and (not (= var17 var20)) (and (not (= var17 var19)) (and (not (= var17 var18)) (and (not (= var15 var16)) (and (not (= var14 var16)) (and (not (= var14 var15)) (and (not (= var13 var16)) (and (not (= var13 var15)) (and (not (= var13 var14)) (and (not (= var12 var16)) (and (not (= var12 var15)) (and (not (= var12 var14)) (and (not (= var12 var13)) (and (not (= var11 var16)) (and (not (= var11 var15)) (and (not (= var11 var14)) (and (not (= var11 var13)) (and (not (= var11 var12)) (and (not (= var10 var16)) (and (not (= var10 var15)) (and (not (= var10 var14)) (and (not (= var10 var13)) (and (not (= var10 var12)) (and (not (= var10 var11)) (and (not (= var9 var16)) (and (not (= var9 var15)) (and (not (= var9 var14)) (and (not (= var9 var13)) (and (not (= var9 var12)) (and (not (= var9 var11)) (and (not (= var9 var10)) (and (not (= var7 var8)) (and (not (= var6 var8)) (and (not (= var6 var7)) (and (not (= var5 var8)) (and (not (= var5 var7)) (and (not (= var5 var6)) (and (not (= var4 var8)) (and (not (= var4 var7)) (and (not (= var4 var6)) (and (not (= var4 var5)) (and (not (= var3 var8)) (and (not (= var3 var7)) (and (not (= var3 var6)) (and (not (= var3 var5)) (and (not (= var3 var4)) (and (not (= var2 var8)) (and (not (= var2 var7)) (and (not (= var2 var6)) (and (not (= var2 var5)) (and (not (= var2 var4)) (and (not (= var2 var3)) (and (not (= var1 var8)) (and (not (= var1 var7)) (and (not (= var1 var6)) (and (not (= var1 var5)) (and (not (= var1 var4)) (and (not (= var1 var3)) (and (not (= var1 var2)) (and (not (= var0 var8)) (and (not (= var0 var7)) (and (not (= var0 var6)) (and (not (= var0 var5)) (and (not (= var0 var4)) (and (not (= var0 var3)) (and (not (= var0 var2)) (and (not (= var0 var1)) (and (not (= var50 var48)) (and (not (= var44 var48)) (and (not (= var44 var50)) (and (not (= var38 var48)) (and (not (= var38 var50)) (and (not (= var38 var44)) (and (not (= var31 var48)) (and (not (= var31 var50)) (and (not (= var31 var44)) (and (not (= var31 var38)) (and (not (= var36 var48)) (and (not (= var36 var50)) (and (not (= var36 var44)) (and (not (= var36 var38)) (and (not (= var36 var31)) (and (not (= var42 var48)) (and (not (= var42 var50)) (and (not (= var42 var44)) (and (not (= var42 var38)) (and (not (= var42 var31)) (and (not (= var42 var36)) (and (not (= var47 var48)) (and (not (= var47 var50)) (and (not (= var47 var44)) (and (not (= var47 var38)) (and (not (= var47 var31)) (and (not (= var47 var36)) (and (not (= var47 var42)) (and (not (= var49 var48)) (and (not (= var49 var50)) (and (not (= var49 var44)) (and (not (= var49 var38)) (and (not (= var49 var31)) (and (not (= var49 var36)) (and (not (= var49 var42)) (and (not (= var49 var47)) (and (not (= var51 var48)) (and (not (= var51 var50)) (and (not (= var51 var44)) (and (not (= var51 var38)) (and (not (= var51 var31)) (and (not (= var51 var36)) (and (not (= var51 var42)) (and (not (= var51 var47)) (not (= var51 var49)))))))))))))))))))))))))))))))))))))))))))))))))))))))))))))))))))))))))))))))))))))))))))))))))))))))))))))))))))))))))))))))))))))))))))))))))))))))))))))))))))))))))))))))))))))))))))))))))))))))))))))))) (and (not (= var46 0)) (and (<= 0 (+ 9 (* (- 1) var46))) (<= 0 (+ var46 9))))) (and (not (= var45 0)) (and (<= 0 (+ 9 (* (- 1) var45))) (<= 0 (+ var45 9))))) (and (not (= var43 0)) (and (<= 0 (+ 9 (* (- 1) var43))) (<= 0 (+ var43 9))))) (and (not (= var41 0)) (and (<= 0 (+ 9 (* (- 1) var41))) (<= 0 (+ var41 9))))) (and (not (= var40 0)) (and (<= 0 (+ 9 (* (- 1) var40))) (<= 0 (+ var40 9))))) (and (not (= var39 0)) (and (<= 0 (+ 9 (* (- 1) var39))) (<= 0 (+ var39 9))))) (and (not (= var37 0)) (and (<= 0 (+ 9 (* (- 1) var37))) (<= 0 (+ var37 9))))) (and (not (= var35 0)) (and (<= 0 (+ 9 (* (- 1) var35))) (<= 0 (+ var35 9))))) (and (not (= var34 0)) (and (<= 0 (+ 9 (* (- 1) var34))) (<= 0 (+ var34 9))))) (and (not (= var33 0)) (and (<= 0 (+ 9 (* (- 1) var33))) (<= 0 (+ var33 9))))) (and (not (= var32 0)) (and (<= 0 (+ 9 (* (- 1) var32))) (<= 0 (+ var32 9))))) (and (not (= var30 0)) (and (<= 0 (+ 9 (* (- 1) var30))) (<= 0 (+ var30 9))))) (and (not (= var29 0)) (and (<= 0 (+ 9 (* (- 1) var29))) (<= 0 (+ var29 9))))) (and (not (= var28 0)) (and (<= 0 (+ 9 (* (- 1) var28))) (<= 0 (+ var28 9))))) (and (not (= var27 0)) (and (<= 0 (+ 9 (* (- 1) var27))) (<= 0 (+ var27 9))))) (and (not (= var26 0)) (and (<= 0 (+ 9 (* (- 1) var26))) (<= 0 (+ var26 9))))) (and (not (= var25 0)) (and (<= 0 (+ 9 (* (- 1) var25))) (<= 0 (+ var25 9))))) (and (not (= var24 0)) (and (<= 0 (+ 9 (* (- 1) var24))) (<= 0 (+ var24 9))))) (and (not (= var23 0)) (and (<= 0 (+ 9 (* (- 1) var23))) (<= 0 (+ var23 9))))) (and (not (= var22 0)) (and (<= 0 (+ 9 (* (- 1) var22))) (<= 0 (+ var22 9))))) (and (not (= var21 0)) (and (<= 0 (+ 9 (* (- 1) var21))) (<= 0 (+ var21 9))))) (and (not (= var20 0)) (and (<= 0 (+ 9 (* (- 1) var20))) (<= 0 (+ var20 9))))) (and (not (= var19 0)) (and (<= 0 (+ 9 (* (- 1) var19))) (<= 0 (+ var19 9))))) (and (not (= var18 0)) (and (<= 0 (+ 9 (* (- 1) var18))) (<= 0 (+ var18 9))))) (and (not (= var17 0)) (and (<= 0 (+ 9 (* (- 1) var17))) (<= 0 (+ var17 9))))) (and (not (= var16 0)) (and (<= 0 (+ 9 (* (- 1) var16))) (<= 0 (+ var16 9))))) (and (not (= var15 0)) (and (<= 0 (+ 9 (* (- 1) var15))) (<= 0 (+ var15 9))))) (and (not (= var14 0)) (and (<= 0 (+ 9 (* (- 1) var14))) (<= 0 (+ var14 9))))) (and (not (= var13 0)) (and (<= 0 (+ 9 (* (- 1) var13))) (<= 0 (+ var13 9))))) (and (not (= var12 0)) (and (<= 0 (+ 9 (* (- 1) var12))) (<= 0 (+ var12 9))))) (and (not (= var11 0)) (and (<= 0 (+ 9 (* (- 1) var11))) (<= 0 (+ var11 9))))) (and (not (= var10 0)) (and (<= 0 (+ 9 (* (- 1) var10))) (<= 0 (+ var10 9))))) (and (not (= var9 0)) (and (<= 0 (+ 9 (* (- 1) var9))) (<= 0 (+ var9 9))))) (and (not (= var8 0)) (and (<= 0 (+ 9 (* (- 1) var8))) (<= 0 (+ var8 9))))) (and (not (= var7 0)) (and (<= 0 (+ 9 (* (- 1) var7))) (<= 0 (+ var7 9))))) (and (not (= var6 0)) (and (<= 0 (+ 9 (* (- 1) var6))) (<= 0 (+ var6 9))))) (and (not (= var5 0)) (and (<= 0 (+ 9 (* (- 1) var5))) (<= 0 (+ var5 9))))) (and (not (= var4 0)) (and (<= 0 (+ 9 (* (- 1) var4))) (<= 0 (+ var4 9))))) (and (not (= var3 0)) (and (<= 0 (+ 9 (* (- 1) var3))) (<= 0 (+ var3 9))))) (and (not (= var2 0)) (and (<= 0 (+ 9 (* (- 1) var2))) (<= 0 (+ var2 9))))) (and (not (= var1 0)) (and (<= 0 (+ 9 (* (- 1) var1))) (<= 0 (+ var1 9))))) (and (not (= var0 0)) (and (<= 0 (+ 9 (* (- 1) var0))) (<= 0 (+ var0 9))))) (and (<= 0 (+ 10 (* (- 1) var48))) (<= 0 (+ var48 (- 1))))) (and (<= 0 (+ 10 (* (- 1) var50))) (<= 0 (+ var50 (- 1))))) (and (<= 0 (+ 10 (* (- 1) var44))) (<= 0 (+ var44 (- 1))))) (and (<= 0 (+ 10 (* (- 1) var38))) (<= 0 (+ var38 (- 1))))) (and (<= 0 (+ 10 (* (- 1) var31))) (<= 0 (+ var31 (- 1))))) (and (<= 0 (+ 10 (* (- 1) var36))) (<= 0 (+ var36 (- 1))))) (and (<= 0 (+ 10 (* (- 1) var42))) (<= 0 (+ var42 (- 1))))) (and (<= 0 (+ 10 (* (- 1) var47))) (<= 0 (+ var47 (- 1))))) (and (<= 0 (+ 10 (* (- 1) var49))) (<= 0 (+ var49 (- 1))))) (and (<= 0 (+ 10 (* (- 1) var51))) (<= 0 (+ var51 (- 1))))))) (inv_main515 var55 var54 var53 var51 var49 var47 var42 var36 var31 var38 var44 var50 var48 var0 var1 var2 var3 var4 var5 var6 var7 var8 var9 var10 var11 var12 var13 var14 var15 var16 var17 var18 var19 var20 var21 var22 var23 var24 var25 var26 var27 var28 var29 var30 var32 var33 var34 var35 var37 var39 var40 var41 var43 var45 var46 1))))
(assert (forall ((var0 Int) (var1 Int) (var2 Int) (var3 Int) (var4 Int) (var5 Int) (var6 Int) (var7 Int) (var8 Int) (var9 Int) (var10 Int) (var11 Int) (var12 Int) (var13 Int) (var14 Int) (var15 Int) (var16 Int) (var17 Int) (var18 Int) (var19 Int) (var20 Int) (var21 Int) (var22 Int) (var23 Int) (var24 Int) (var25 Int) (var26 Int) (var27 Int) (var28 Int) (var29 Int) (var30 Int) (var31 Int) (var32 Int) (var33 Int) (var34 Int) (var35 Int) (var36 Int) (var37 Int) (var38 Int) (var39 Int) (var40 Int) (var41 Int) (var42 Int) (var43 Int) (var44 Int) (var45 Int) (var46 Int) (var47 Int) (var48 Int) (var49 Int) (var50 Int) (var51 Int) (var52 Int) (var53 Int) (var54 Int) (var55 Int)) (not (inv_main515 var55 var54 var53 var52 var51 var50 var49 var48 var47 var46 var45 var44 var43 var42 var41 var40 var39 var38 var37 var36 var35 var34 var33 var32 var31 var30 var29 var28 var27 var26 var25 var24 var23 var22 var21 var20 var19 var18 var17 var16 var15 var14 var13 var12 var11 var10 var9 var8 var7 var6 var5 var4 var3 var2 var1 var0))))
(check-sat)
